 vasp.5.4.4.18Apr17-6-g9f103f2a35 (build Nov 26 2018 16:29:41) complex

 executed on             LinuxIFC date 2019.07.02  14:08:03

 INCAR:
 POTCAR:    PAW_PBE Mo_sv_GW 05Dec2013
 POTCAR:    PAW_PBE S_GW 19Mar2012
 POTCAR:    PAW_PBE Mo_sv_GW 05Dec2013
   VRHFIN =Mo: 4s4p5s4d

   TITEL  = PAW_PBE Mo_sv_GW 05Dec2013
   POMASS =   95.940; ZVAL   =   14.000    mass and valenz
   ENMAX  =  344.914; ENMIN  =  258.686 eV

 POTCAR:    PAW_PBE S_GW 19Mar2012
   VRHFIN =S : s2p4

   TITEL  = PAW_PBE S_GW 19Mar2012
   POMASS =   32.066; ZVAL   =    6.000    mass and valenz
   ENMAX  =  258.689; ENMIN  =  194.016 eV

  PAW_PBE Mo_sv_GW 05Dec2013            :
  PAW_PBE S_GW 19Mar2012                :

 POSCAR: MoS2 (bulk, 2 f.u.)
  positions in direct lattice
  velocities in cartesian coordinates
 exchange correlation table for  LEXCH =        8
   RHO(1)=    0.500       N(1)  =     2000
   RHO(2)=  100.500       N(2)  =     4000

 ion  position               nearest neighbor table
   1  0.667  0.333  0.250-   3 2.41   5 2.41   3 2.41   5 2.41   3 2.41   5 2.41
   2  0.333  0.667  0.750-   4 2.41   6 2.41   4 2.41   6 2.41   4 2.41   6 2.41
   3  0.333  0.667  0.136-   1 2.41   1 2.41   1 2.41
   4  0.667  0.333  0.636-   2 2.41   2 2.41   2 2.41
   5  0.333  0.667  0.364-   1 2.41   1 2.41   1 2.41
   6  0.667  0.333  0.864-   2 2.41   2 2.41   2 2.41

  LATTYP: Found a hexagonal cell.
 ALAT       =     3.1792672181
 C/A-ratio  =     4.3234122164

  Lattice vectors:

 A1 = (   3.1792678194,  -0.0000000000,   0.0000000000)
 A2 = (  -1.5896339097,   2.7533260027,   0.0000000000)
 A3 = (   0.0000000000,   0.0000000000,  13.7452827299)

Analysis of symmetry for initial positions (statically):
 Subroutine PRICEL returns:
 Original cell was already a primitive cell.

 Routine SETGRP: Setting up the symmetry group for a
 hexagonal supercell.

 Subroutine GETGRP returns: Found 24 space group operations
 (whereof 12 operations were pure point group operations)
 out of a pool of 24 trial point group operations.

The static configuration has the point symmetry D_3d.
 The point group associated with its full space group is D_6h.

Analysis of symmetry for dynamics (positions and initial velocities):
 Subroutine PRICEL returns:
 Original cell was already a primitive cell.

 Routine SETGRP: Setting up the symmetry group for a
 hexagonal supercell.

 Subroutine GETGRP returns: Found 24 space group operations
 (whereof 12 operations were pure point group operations)
 out of a pool of 24 trial point group operations.

The dynamic configuration has the point symmetry D_3d.
 The point group associated with its full space group is D_6h.

 Subroutine INISYM returns: Found 24 space group operations
 (whereof 12 operations are pure point group operations),
 and found     1 'primitive' translations

 KPOINTS: MoS2 kpoints

Automatic generation of k-mesh.
Space group operators:
 irot       det(A)        alpha          n_x          n_y          n_z        tau_x        tau_y        tau_z
    1     1.000000     0.000000     1.000000     0.000000     0.000000     0.000000     0.000000     0.000000
    2    -1.000000     0.000000     1.000000     0.000000     0.000000     0.000000     0.000000     0.000000
    3     1.000000   120.000000     0.000000     0.000000    -1.000000     0.000000     0.000000     0.000000
    4    -1.000000   120.000000     0.000000     0.000000    -1.000000     0.000000     0.000000     0.000000
    5     1.000000   120.000000     0.000000     0.000000     1.000000     0.000000     0.000000     0.000000
    6    -1.000000   120.000000     0.000000     0.000000     1.000000     0.000000     0.000000     0.000000
    7     1.000000   180.000000     1.000000     0.000000     0.000000     0.000000     0.000000     0.000000
    8    -1.000000   180.000000     1.000000     0.000000     0.000000     0.000000     0.000000     0.000000
    9     1.000000   180.000000     0.500000    -0.866025     0.000000     0.000000     0.000000     0.000000
   10    -1.000000   180.000000     0.500000    -0.866025     0.000000     0.000000     0.000000     0.000000
   11     1.000000   180.000000    -0.500000    -0.866025     0.000000     0.000000     0.000000     0.000000
   12    -1.000000   180.000000    -0.500000    -0.866025     0.000000     0.000000     0.000000     0.000000
   13     1.000000    60.000000     0.000000     0.000000    -1.000000     0.000001    -0.000000     0.500000
   14    -1.000000    60.000000     0.000000     0.000000    -1.000000     0.000001     0.000000     0.500000
   15     1.000000   180.000000     0.000000     0.000000     1.000000     0.000000     0.000000     0.500000
   16    -1.000000   180.000000     0.000000     0.000000     1.000000     0.000000     0.000000     0.500000
   17     1.000000    60.000000     0.000000     0.000000     1.000000     0.000000     0.000000     0.500000
   18    -1.000000    60.000000     0.000000     0.000000     1.000000     0.000000     0.000000     0.500000
   19     1.000000   180.000000     0.866025    -0.500000     0.000000     0.000000     0.000000     0.500000
   20    -1.000000   180.000000     0.866025    -0.500000     0.000000     0.000000     0.000000     0.500000
   21     1.000000   180.000000     0.000000     1.000000     0.000000     0.000001    -0.000000     0.500000
   22    -1.000000   180.000000     0.000000     1.000000     0.000000     0.000001     0.000000     0.500000
   23     1.000000   180.000000     0.866025     0.500000     0.000000     0.000000     0.000000     0.500000
   24    -1.000000   180.000000     0.866025     0.500000     0.000000     0.000000     0.000000     0.500000

 Subroutine IBZKPT returns following result:

 Found     15 irreducible k-points:

 Following reciprocal coordinates:
            Coordinates               Weight
  0.000000  0.000000  0.000000      1.000000
  0.200000 -0.000000  0.000000      6.000000
  0.400000 -0.000000  0.000000      6.000000
  0.200000  0.200000  0.000000      6.000000
  0.400000  0.200000  0.000000      6.000000
  0.000000  0.000000  0.200000      2.000000
  0.200000 -0.000000  0.200000     12.000000
  0.400000 -0.000000  0.200000     12.000000
  0.200000  0.200000  0.200000     12.000000
  0.400000  0.200000  0.200000     12.000000
  0.000000  0.000000  0.400000      2.000000
  0.200000 -0.000000  0.400000     12.000000
  0.400000 -0.000000  0.400000     12.000000
  0.200000  0.200000  0.400000     12.000000
  0.400000  0.200000  0.400000     12.000000

 Following cartesian coordinates:
            Coordinates               Weight
  0.000000  0.000000  0.000000      1.000000
  0.062908  0.036320  0.000000      6.000000
  0.125815  0.072639  0.000000      6.000000
  0.062908  0.108959  0.000000      6.000000
  0.125815  0.145279  0.000000      6.000000
  0.000000  0.000000  0.014550      2.000000
  0.062908  0.036320  0.014550     12.000000
  0.125815  0.072639  0.014550     12.000000
  0.062908  0.108959  0.014550     12.000000
  0.125815  0.145279  0.014550     12.000000
  0.000000  0.000000  0.029101      2.000000
  0.062908  0.036320  0.029101     12.000000
  0.125815  0.072639  0.029101     12.000000
  0.062908  0.108959  0.029101     12.000000
  0.125815  0.145279  0.029101     12.000000

 SYSTEM =  2H-MoS2
 POSCAR =  MoS2 (bulk, 2 f.u.)

 Startparameter for this run:
   NWRITE =      2    write-flag & timer
   PREC   = normal    normal or accurate (medium, high low for compatibility)
   ISTART =      1    job   : 0-new  1-cont  2-samecut
   ICHARG =      0    charge: 1-file 2-atom 10-const
   ISPIN  =      1    spin polarized calculation?
   LNONCOLLINEAR =      F non collinear calculations
   LSORBIT =      F    spin-orbit coupling
   INIWAV =      1    electr: 0-lowe 1-rand  2-diag
   LASPH  =      F    aspherical Exc in radial PAW
   METAGGA=      F    non-selfconsistent MetaGGA calc.

 Electronic Relaxation 1
   ENCUT  =  344.9 eV  25.35 Ry    5.03 a.u.   4.81  4.81 20.81*2*pi/ulx,y,z
   ENINI  =  344.9     initial cutoff
   ENAUG  =  964.7 eV  augmentation charge cutoff
   NELM   =     60;   NELMIN=  2; NELMDL=  0     # of ELM steps
   EDIFF  = 0.1E-03   stopping-criterion for ELM
   LREAL  =      F    real-space projection
   NLSPLINE    = F    spline interpolate recip. space projectors
   LCOMPAT=      F    compatible to vasp.4.4
   GGA_COMPAT  = T    GGA compatible to vasp.4.4-vasp.4.6
   LMAXPAW     = -100 max onsite density
   LMAXMIX     =    2 max onsite mixed and CHGCAR
   VOSKOWN=      0    Vosko Wilk Nusair interpolation
   ROPT   =    0.00000   0.00000
 Ionic relaxation
   EDIFFG = 0.1E-02   stopping-criterion for IOM
   NSW    =      0    number of steps for IOM
   NBLOCK =      1;   KBLOCK =      1    inner block; outer block
   IBRION =     -1    ionic relax: 0-MD 1-quasi-New 2-CG
   NFREE  =      0    steps in history (QN), initial steepest desc. (CG)
   ISIF   =      2    stress and relaxation
   IWAVPR =     10    prediction:  0-non 1-charg 2-wave 3-comb
   ISYM   =      2    0-nonsym 1-usesym 2-fastsym
   LCORR  =      T    Harris-Foulkes like correction to forces

   POTIM  = 0.5000    time-step for ionic-motion
   TEIN   =    0.0    initial temperature
   TEBEG  =    0.0;   TEEND  =   0.0 temperature during run
   SMASS  =  -3.00    Nose mass-parameter (am)
   estimated Nose-frequenzy (Omega)   =  0.10E-29 period in steps =****** mass=  -0.231E-27a.u.
   SCALEE = 1.0000    scale energy and forces
   NPACO  =    256;   APACO  = 16.0  distance and # of slots for P.C.
   PSTRESS=    0.0 pullay stress

  Mass of Ions in am
   POMASS =  95.94 32.07
  Ionic Valenz
   ZVAL   =  14.00  6.00
  Atomic Wigner-Seitz radii
  virtual crystal weights
   VCA    =   1.00  1.00
   NELECT =      52.0000    total number of electrons
   NUPDOWN=      -1.0000    fix difference up-down

 DOS related values:
   EMIN   =  10.00;   EMAX   =-10.00  energy-range for DOS
   EFERMI =   0.00
   ISMEAR =     0;   SIGMA  =   0.05  broadening in eV -4-tet -1-fermi 0-gaus

 Electronic relaxation 2 (details)
   IALGO  =     90    algorithm
   LDIAG  =      T    sub-space diagonalisation (order eigenvalues)
   LSUBROT=      F    optimize rotation matrix (better conditioning)
   TURBO    =      0    0=normal 1=particle mesh
   IRESTART =      0    0=no restart 2=restart with 2 vectors
   NREBOOT  =      0    no. of reboots
   NMIN     =      0    reboot dimension
   EREF     =   0.00    reference energy to select bands
   IMIX   =      4    mixing-type and parameters
     AMIX     =   0.40;   BMIX     =  1.00
     AMIX_MAG =   1.60;   BMIX_MAG =  1.00
     AMIN     =   0.10
     WC   =   100.;   INIMIX=   1;  MIXPRE=   1;  MAXMIX= -45

 Intra band minimization:
   WEIMIN = 0.0000     energy-eigenvalue tresh-hold
   EBREAK =  0.20E-06  absolut break condition
   DEPER  =   0.30     relativ break condition

   TIME   =   0.40     timestep for ELM

  volume/ion in A,a.u.               =      20.05       135.33
  Fermi-wavevector in a.u.,A,eV,Ry     =   1.237741  2.338991 20.844166  1.532003
  Thomas-Fermi vector in A             =   2.372296

 Write flags
   LWAVE        =      T    write WAVECAR
   LDOWNSAMPLE  =      F    k-point downsampling of WAVECAR
[...]
   14.380662   -1.582498   -1.582496   -1.842237    0.000000    0.000000    0.000000
   14.803623   -1.255160   -1.255159   -2.019557    0.000000   -0.000000    0.000000
   15.226583   -1.040844   -1.040843   -1.720199    0.000000    0.000000   -0.000000
   15.649544   -1.248559   -1.248558   -1.267754    0.000000   -0.000000    0.000000
   16.072505   -1.387450   -1.387448   -1.168405    0.000000   -0.000000    0.000000
   16.495465   -1.101185   -1.101184   -0.895011    0.000000   -0.000000    0.000000
   16.918426   -0.895754   -0.895753   -0.985298    0.000000   -0.000000    0.000000
   17.341387   -0.712052   -0.712051   -0.854165    0.000000   -0.000000    0.000000
   17.764347   -0.928789   -0.928788   -0.529425    0.000000   -0.000000    0.000000
   18.187308   -0.606500   -0.606499   -0.636002    0.000000    0.000000    0.000000
   18.610269   -0.426625   -0.426624   -0.522984    0.000000   -0.000000    0.000000
   19.033229   -0.237324   -0.237323   -0.281135    0.000000   -0.000000    0.000000
   19.456190   -0.195648   -0.195647   -0.295371    0.000000    0.000000    0.000000
   19.879151   -0.064344   -0.064344   -0.047455    0.000000   -0.000000    0.000000
   20.302111   -0.179792   -0.179791   -0.161152    0.000000    0.000000    0.000000
   20.725072   -0.012813   -0.012813   -0.169576    0.000000    0.000000    0.000000
   21.148033    0.056351    0.056351   -0.026456    0.000000   -0.000000   -0.000000
   21.570993    0.112395    0.112396    0.026874    0.000000    0.000000   -0.000000
   21.993954    0.127543    0.127543    0.133139    0.000000   -0.000000   -0.000000
   22.416915    0.144844    0.144844    0.111739    0.000000   -0.000000    0.000000
   22.839875    0.237816    0.237816    0.194458    0.000000   -0.000000    0.000000
   23.262836    0.296913    0.296914    0.216220    0.000000   -0.000000    0.000000
   23.685796    0.266837    0.266837    0.241221    0.000000    0.000000   -0.000000
   24.108757    0.338253    0.338253    0.336155    0.000000   -0.000000    0.000000
   24.531718    0.319016    0.319017    0.343178    0.000000   -0.000000    0.000000
   24.954678    0.404587    0.404588    0.391119    0.000000   -0.000000    0.000000
[...]
  120.543786    0.963794    0.963794    0.963873    0.000000   -0.000000    0.000000
  120.966746    0.964060    0.964060    0.964138    0.000000   -0.000000    0.000000
  121.389707    0.964322    0.964322    0.964399    0.000000   -0.000000    0.000000
  121.812668    0.964581    0.964581    0.964658    0.000000   -0.000000    0.000000
  122.235628    0.964838    0.964838    0.964914    0.000000   -0.000000    0.000000
  122.658589    0.965091    0.965091    0.965167    0.000000   -0.000000    0.000000
  123.081549    0.965342    0.965342    0.965417    0.000000   -0.000000    0.000000
  123.504510    0.965590    0.965590    0.965664    0.000000   -0.000000    0.000000
  123.927471    0.965835    0.965835    0.965909    0.000000   -0.000000    0.000000
  124.350431    0.966078    0.966078    0.966151    0.000000   -0.000000    0.000000
  124.773392    0.966318    0.966318    0.966390    0.000000   -0.000000    0.000000
  125.196353    0.966555    0.966555    0.966626    0.000000   -0.000000    0.000000
  125.619313    0.966790    0.966790    0.966860    0.000000   -0.000000    0.000000
  126.042274    0.967022    0.967022    0.967092    0.000000   -0.000000    0.000000
  126.465235    0.967252    0.967252    0.967321    0.000000   -0.000000    0.000000

  frequency dependent IMAGINARY DIELECTRIC FUNCTION (independent particle, no local field effects) current-current (2nd set in vasprun.xml)
     E(ev)      X         Y         Z        XY        YZ        ZX
    0.000000   63.402631   63.402599   33.165014   -0.000000    0.000000   -0.000000
    0.422961    6.561067    6.561064    3.357250   -0.000000    0.000000   -0.000000
    0.845921    3.672121    3.672119    1.744481   -0.000000    0.000000   -0.000000
    1.268882    3.074200    3.074198    1.247422   -0.000000    0.000000   -0.000000
    1.691843    3.677459    3.677457    1.051056   -0.000000    0.000000    0.000000
    2.114803   12.342677   12.342671    1.047406   -0.000000    0.000000    0.000000
    2.537764   18.905370   18.905361    2.017602   -0.000000    0.000000    0.000000
    2.960725   26.820334   26.820321    4.047159   -0.000000   -0.000000    0.000000
    3.383685   14.860953   14.860946    4.567709   -0.000000   -0.000000   -0.000000
    3.806646   10.977621   10.977615    3.683564   -0.000000    0.000000   -0.000000
    4.229607   18.320189   18.320180    3.940726   -0.000000   -0.000000   -0.000000
    4.652567    9.858419    9.858414   10.991860   -0.000000   -0.000000   -0.000000
    5.075528    8.101425    8.101421   20.156327   -0.000000   -0.000000    0.000000
    5.498488    6.497016    6.497012   16.015379   -0.000000   -0.000000    0.000000
    5.921449    9.851582    9.851577   10.127703   -0.000000    0.000000   -0.000000
    6.344410    6.490720    6.490716    7.610442   -0.000000   -0.000000   -0.000000
    6.767370    4.645582    4.645579    4.184706   -0.000000   -0.000000   -0.000000
    7.190331    2.278046    2.278045    6.614139   -0.000000   -0.000000    0.000000
    7.613292    4.226153    4.226151    5.372608   -0.000000    0.000000    0.000000
    8.036252    2.311511    2.311510    6.694021   -0.000000   -0.000000   -0.000000
    8.459213    2.092100    2.092099    8.877080   -0.000000    0.000000   -0.000000
    8.882174    3.275801    3.275799    4.162619   -0.000000    0.000000   -0.000000
    9.305134    3.259346    3.259344    5.196191   -0.000000    0.000000    0.000000
    9.728095    3.389206    3.389204    7.861341   -0.000000   -0.000000    0.000000
   10.151056    3.082503    3.082502    6.657990   -0.000000   -0.000000    0.000000
   10.574016    6.795635    6.795632    4.321763   -0.000000   -0.000000    0.000000
   10.996977    4.767536    4.767533    2.660365   -0.000000   -0.000000    0.000000
   11.419938    1.722795    1.722794    4.714389   -0.000000   -0.000000   -0.000000
   11.842898    2.817603    2.817602    4.364474   -0.000000    0.000000   -0.000000
   12.265859    3.188881    3.188880    2.754550   -0.000000    0.000000   -0.000000
   12.688820    2.481330    2.481329    1.840918   -0.000000    0.000000    0.000000
   13.111780    3.360332    3.360330    2.171726   -0.000000    0.000000   -0.000000
   13.534741    2.182413    2.182412    3.417096   -0.000000    0.000000   -0.000000
   13.957701    2.329112    2.329111    1.771156   -0.000000    0.000000   -0.000000
   14.380662    2.135887    2.135886    2.082554   -0.000000    0.000000   -0.000000
   14.803623    1.519829    1.519828    1.465964   -0.000000   -0.000000   -0.000000
   15.226583    1.856886    1.856885    0.800993   -0.000000   -0.000000    0.000000
   15.649544    1.243703    1.243703    0.752387   -0.000000    0.000000   -0.000000
   16.072505    1.023509    1.023509    0.819030   -0.000000   -0.000000   -0.000000
   16.495465    0.727538    0.727538    0.682280   -0.000000   -0.000000   -0.000000
   16.918426    0.680221    0.680220    0.652144   -0.000000   -0.000000    0.000000
   17.341387    0.865237    0.865236    0.492218   -0.000000   -0.000000    0.000000
   17.764347    0.403367    0.403366    0.423612   -0.000000    0.000000    0.000000
   18.187308    0.235648    0.235648    0.433749   -0.000000    0.000000    0.000000
   18.610269    0.227916    0.227916    0.234990   -0.000000    0.000000    0.000000
   19.033229    0.333518    0.333518    0.243440   -0.000000   -0.000000   -0.000000
   19.456190    0.260764    0.260763    0.332292   -0.000000    0.000000    0.000000
   19.879151    0.350886    0.350886    0.259726   -0.000000    0.000000    0.000000
   20.302111    0.257491    0.257491    0.332280   -0.000000   -0.000000   -0.000000
   20.725072    0.168386    0.168386    0.216159   -0.000000    0.000000    0.000000
   21.148033    0.216397    0.216397    0.137165   -0.000000   -0.000000    0.000000
   21.570993    0.179348    0.179348    0.168958   -0.000000    0.000000    0.000000
   21.993954    0.203505    0.203505    0.143955   -0.000000    0.000000   -0.000000
   22.416915    0.196946    0.196946    0.178743   -0.000000    0.000000   -0.000000
   22.839875    0.162920    0.162920    0.138556   -0.000000    0.000000   -0.000000
   23.262836    0.171333    0.171333    0.141680   -0.000000    0.000000    0.000000
   23.685796    0.174124    0.174124    0.142453   -0.000000    0.000000   -0.000000
   24.108757    0.198282    0.198282    0.107576   -0.000000    0.000000   -0.000000
   24.531718    0.125635    0.125635    0.148958   -0.000000    0.000000   -0.000000
   24.954678    0.150384    0.150383    0.126223   -0.000000   -0.000000   -0.000000
[...]
  120.543786    0.000003    0.000003    0.000003   -0.000000    0.000000    0.000000
  120.966746    0.000003    0.000003    0.000003   -0.000000    0.000000    0.000000
  121.389707    0.000003    0.000003    0.000003   -0.000000    0.000000    0.000000
  121.812668    0.000003    0.000003    0.000003   -0.000000    0.000000    0.000000
  122.235628    0.000003    0.000003    0.000003   -0.000000    0.000000    0.000000
  122.658589    0.000003    0.000003    0.000003   -0.000000    0.000000    0.000000
  123.081549    0.000003    0.000003    0.000003   -0.000000    0.000000    0.000000
  123.504510    0.000003    0.000003    0.000003   -0.000000    0.000000    0.000000
  123.927471    0.000003    0.000003    0.000002   -0.000000    0.000000    0.000000
  124.350431    0.000002    0.000002    0.000002   -0.000000    0.000000    0.000000
  124.773392    0.000002    0.000002    0.000002   -0.000000    0.000000    0.000000
  125.196353    0.000002    0.000002    0.000002   -0.000000    0.000000    0.000000
  125.619313    0.000002    0.000002    0.000002   -0.000000    0.000000    0.000000
  126.042274    0.000002    0.000002    0.000002   -0.000000    0.000000    0.000000
  126.465235    0.000002    0.000002    0.000002   -0.000000    0.000000    0.000000

  frequency dependent      REAL DIELECTRIC FUNCTION (independent particle, no local field effects) current-current (2nd set in vasprun.xml)
     E(ev)        X           Y           Z          XY          YZ          ZX
    0.000000   14.355171   14.355164    8.003726   -0.000000    0.000000   -0.000000
    0.422961   14.582504   14.582497    8.046338   -0.000000    0.000000   -0.000000
    0.845921   15.345279   15.345272    8.181026   -0.000000    0.000000   -0.000000
    1.268882   16.946542   16.946534    8.427029   -0.000000    0.000000   -0.000000
    1.691843   20.438267   20.438257    8.831693   -0.000000    0.000000   -0.000000
    2.114803   31.201664   31.201649    9.529166   -0.000000    0.000000    0.000000
    2.537764   13.465797   13.465791   10.639089   -0.000000   -0.000000   -0.000000
    2.960725   10.500121   10.500116   11.199592   -0.000000   -0.000000   -0.000000
    3.383685   -3.363246   -3.363244   10.059142    0.000000   -0.000000   -0.000000
    3.806646    6.037639    6.037637   10.153396   -0.000000   -0.000000   -0.000000
    4.229607    1.075926    1.075926   13.155584   -0.000000   -0.000000    0.000000
    4.652567    0.465185    0.465185   16.080248   -0.000000   -0.000000    0.000000
    5.075528   -3.338866   -3.338864   14.310316    0.000000   -0.000000    0.000000
    5.498488   -0.306261   -0.306261   -2.529345    0.000000   -0.000000   -0.000000
    5.921449   -1.898321   -1.898320   -1.236523    0.000000    0.000000   -0.000000
    6.344410   -3.240579   -3.240577   -1.885111    0.000000    0.000000    0.000000
    6.767370   -3.160267   -3.160265   -0.251769    0.000000    0.000000    0.000000
    7.190331   -2.069360   -2.069359    2.128541    0.000000    0.000000    0.000000
    7.613292   -0.435593   -0.435593    2.019199    0.000000    0.000000    0.000000
    8.036252   -1.694845   -1.694843    1.250019    0.000000    0.000000   -0.000000
    8.459213    1.021521    1.021521    1.014182   -0.000000    0.000000   -0.000000
    8.882174   -0.212543   -0.212542   -1.409836    0.000000    0.000000    0.000000
    9.305134    1.462690    1.462690    1.828497   -0.000000    0.000000   -0.000000
    9.728095    0.215165    0.215165   -2.124383    0.000000   -0.000000   -0.000000
   10.151056    1.125648    1.125648   -0.863312    0.000000   -0.000000    0.000000
   10.574016    2.299440    2.299440   -3.956027   -0.000000   -0.000000    0.000000
   10.996977   -3.869182   -3.869180   -1.937341    0.000000   -0.000000   -0.000000
   11.419938   -1.632518   -1.632517   -0.544007    0.000000   -0.000000   -0.000000
   11.842898    0.492792    0.492792   -1.677453    0.000000    0.000000    0.000000
   12.265859   -0.803892   -0.803891   -2.548005    0.000000    0.000000   -0.000000
   12.688820   -1.172397   -1.172396   -1.905731    0.000000   -0.000000    0.000000
   13.111780   -1.060268   -1.060267   -0.122289    0.000000    0.000000   -0.000000
   13.534741   -1.692824   -1.692823   -2.430485    0.000000   -0.000000    0.000000
   13.957701   -1.327899   -1.327898   -1.945045    0.000000    0.000000    0.000000
   14.380662   -1.612718   -1.612717   -1.871779    0.000000   -0.000000    0.000000
   14.803623   -1.275483   -1.275482   -2.039580    0.000000   -0.000000    0.000000
   15.226583   -1.065574   -1.065573   -1.730491    0.000000   -0.000000    0.000000
   15.649544   -1.264047   -1.264046   -1.277318    0.000000   -0.000000    0.000000
   16.072505   -1.399795   -1.399794   -1.178661    0.000000   -0.000000    0.000000
   16.495465   -1.109586   -1.109584   -0.903260    0.000000   -0.000000    0.000000
   16.918426   -0.903458   -0.903457   -0.992993    0.000000   -0.000000    0.000000
   17.341387   -0.722001   -0.722000   -0.859832    0.000000   -0.000000    0.000000
   17.764347   -0.932964   -0.932963   -0.534062    0.000000   -0.000000    0.000000
   18.187308   -0.608765   -0.608764   -0.640696    0.000000    0.000000    0.000000
   18.610269   -0.428773   -0.428772   -0.525337    0.000000   -0.000000    0.000000
   19.033229   -0.240665   -0.240665   -0.283570    0.000000   -0.000000    0.000000
   19.456190   -0.198043   -0.198042   -0.298809    0.000000   -0.000000    0.000000
   19.879151   -0.067668   -0.067667   -0.049916    0.000000   -0.000000    0.000000
   20.302111   -0.182119   -0.182118   -0.164360    0.000000    0.000000    0.000000
   20.725072   -0.014177   -0.014177   -0.171553    0.000000   -0.000000    0.000000
   21.148033    0.054515    0.054515   -0.027629    0.000000   -0.000000    0.000000
   21.570993    0.110977    0.110977    0.025384    0.000000   -0.000000   -0.000000
   21.993954    0.125911    0.125912    0.131944    0.000000   -0.000000    0.000000
   22.416915    0.143285    0.143286    0.110203    0.000000   -0.000000    0.000000
   22.839875    0.236584    0.236584    0.193345    0.000000    0.000000    0.000000
   23.262836    0.295631    0.295632    0.215083    0.000000   -0.000000    0.000000
   23.685796    0.265557    0.265557    0.240088    0.000000   -0.000000    0.000000
   24.108757    0.336755    0.336756    0.335360    0.000000   -0.000000   -0.000000
   24.531718    0.318179    0.318179    0.342019    0.000000   -0.000000    0.000000
   24.954678    0.403517    0.403517    0.390175    0.000000   -0.000000    0.000000
[...]
  120.543786    0.963802    0.963802    0.963877    0.000000   -0.000000    0.000000
  120.966746    0.964067    0.964067    0.964142    0.000000   -0.000000    0.000000
  121.389707    0.964330    0.964330    0.964403    0.000000   -0.000000    0.000000
  121.812668    0.964589    0.964589    0.964662    0.000000   -0.000000    0.000000
  122.235628    0.964845    0.964845    0.964918    0.000000   -0.000000    0.000000
  122.658589    0.965099    0.965099    0.965171    0.000000   -0.000000    0.000000
  123.081549    0.965350    0.965350    0.965421    0.000000   -0.000000    0.000000
  123.504510    0.965598    0.965598    0.965668    0.000000   -0.000000    0.000000
  123.927471    0.965843    0.965843    0.965913    0.000000   -0.000000    0.000000
  124.350431    0.966085    0.966085    0.966154    0.000000   -0.000000    0.000000
  124.773392    0.966325    0.966325    0.966394    0.000000   -0.000000    0.000000
  125.196353    0.966562    0.966562    0.966630    0.000000   -0.000000    0.000000
  125.619313    0.966797    0.966797    0.966864    0.000000   -0.000000    0.000000
  126.042274    0.967029    0.967029    0.967096    0.000000   -0.000000    0.000000
  126.465235    0.967259    0.967259    0.967325    0.000000   -0.000000    0.000000

 The outermost node in the dielectric function lies at epsilon=  38.7