 vasp.5.4.4.18Apr17-6-g9f103f2a35 (build Nov 26 2018 16:29:41) complex

 executed on             LinuxIFC date 2019.07.02  14:04:28

 INCAR:
 POTCAR:    PAW_PBE Mo_sv_GW 05Dec2013
 POTCAR:    PAW_PBE S_GW 19Mar2012
 POTCAR:    PAW_PBE Mo_sv_GW 05Dec2013

 POTCAR:    PAW_PBE S_GW 19Mar2012

  PAW_PBE Mo_sv_GW 05Dec2013            :
  PAW_PBE S_GW 19Mar2012                :

 POSCAR: MoS2 (bulk, 2 f.u.)
  positions in direct lattice
 exchange correlation table for  LEXCH =        8
   RHO(1)=    0.500       N(1)  =     2000
   RHO(2)=  100.500       N(2)  =     4000

 ion  position               nearest neighbor table
   1  0.667  0.333  0.250-   3 2.42   5 2.42   3 2.42   5 2.42   3 2.42   5 2.42
   2  0.333  0.667  0.750-   4 2.42   6 2.42   4 2.42   6 2.42   4 2.42   6 2.42
   3  0.333  0.667  0.145-   1 2.42   1 2.42   1 2.42
   4  0.667  0.333  0.645-   2 2.42   2 2.42   2 2.42
   5  0.333  0.667  0.355-   1 2.42   1 2.42   1 2.42
   6  0.667  0.333  0.855-   2 2.42   2 2.42   2 2.42

  LATTYP: Found a hexagonal cell.
 ALAT       =     3.1903153920
 C/A-ratio  =     4.6638034714

  Lattice vectors:

 A1 = (   3.1903160000,   0.0000000000,   0.0000000000)
 A2 = (  -1.5951580000,   2.7628940000,   0.0000000000)
 A3 = (   0.0000000000,   0.0000000000,  14.8790040000)

Analysis of symmetry for initial positions (statically):
 Subroutine PRICEL returns:
 Original cell was already a primitive cell.

 Routine SETGRP: Setting up the symmetry group for a
 hexagonal supercell.

 Subroutine GETGRP returns: Found 24 space group operations
 (whereof 12 operations were pure point group operations)
 out of a pool of 24 trial point group operations.

The static configuration has the point symmetry D_3d.
 The point group associated with its full space group is D_6h.

Analysis of symmetry for dynamics (positions and initial velocities):
 Subroutine PRICEL returns:
 Original cell was already a primitive cell.

 Routine SETGRP: Setting up the symmetry group for a
 hexagonal supercell.

 Subroutine GETGRP returns: Found 24 space group operations
 (whereof 12 operations were pure point group operations)
 out of a pool of 24 trial point group operations.

The dynamic configuration has the point symmetry D_3d.
 The point group associated with its full space group is D_6h.

 Subroutine INISYM returns: Found 24 space group operations
 (whereof 12 operations are pure point group operations),
 and found     1 'primitive' translations

 KPOINTS: MoS2 kpoints

Automatic generation of k-mesh.
Space group operators:
 irot       det(A)        alpha          n_x          n_y          n_z        tau_x        tau_y        tau_z
    1     1.000000     0.000000     1.000000     0.000000     0.000000     0.000000     0.000000     0.000000
    2    -1.000000     0.000000     1.000000     0.000000     0.000000     0.000000     0.000000     0.000000
    3     1.000000   120.000000     0.000000     0.000000    -1.000000     0.000000     0.000000     0.000000
    4    -1.000000   120.000000     0.000000     0.000000    -1.000000     0.000000     0.000000     0.000000
    5     1.000000   120.000000     0.000000     0.000000     1.000000     0.000000     0.000000     0.000000
    6    -1.000000   120.000000     0.000000     0.000000     1.000000     0.000000     0.000000     0.000000
    7     1.000000   180.000000     1.000000     0.000000     0.000000     0.000000     0.000000     0.000000
    8    -1.000000   180.000000     1.000000     0.000000     0.000000     0.000000     0.000000     0.000000
    9     1.000000   180.000000     0.500000    -0.866025     0.000000     0.000000     0.000000     0.000000
   10    -1.000000   180.000000     0.500000    -0.866025     0.000000     0.000000     0.000000     0.000000
   11     1.000000   180.000000    -0.500000    -0.866025     0.000000     0.000000     0.000000     0.000000
   12    -1.000000   180.000000    -0.500000    -0.866025     0.000000     0.000000     0.000000     0.000000
   13     1.000000    60.000000     0.000000     0.000000    -1.000000     0.000001     0.000000     0.500000
   14    -1.000000    60.000000     0.000000     0.000000    -1.000000     0.000001     0.000000     0.500000
   15     1.000000   180.000000     0.000000     0.000000     1.000000     0.000000     0.000000     0.500000
   16    -1.000000   180.000000     0.000000     0.000000     1.000000     0.000000     0.000000     0.500000
   17     1.000000    60.000000     0.000000     0.000000     1.000000     0.000000     0.000000     0.500000
   18    -1.000000    60.000000     0.000000     0.000000     1.000000     0.000000     0.000000     0.500000
   19     1.000000   180.000000     0.866025    -0.500000     0.000000     0.000000     0.000000     0.500000
   20    -1.000000   180.000000     0.866025    -0.500000     0.000000     0.000000     0.000000     0.500000
   21     1.000000   180.000000     0.000000     1.000000     0.000000     0.000001     0.000000     0.500000
   22    -1.000000   180.000000     0.000000     1.000000     0.000000     0.000001     0.000000     0.500000
   23     1.000000   180.000000     0.866025     0.500000     0.000000     0.000000     0.000000     0.500000
   24    -1.000000   180.000000     0.866025     0.500000     0.000000     0.000000     0.000000     0.500000

 Subroutine IBZKPT returns following result:

 Found     15 irreducible k-points:

 Following reciprocal coordinates:
            Coordinates               Weight
  0.000000  0.000000  0.000000      1.000000
  0.200000  0.000000  0.000000      6.000000
  0.400000  0.000000  0.000000      6.000000
  0.200000  0.200000  0.000000      6.000000
  0.400000  0.200000  0.000000      6.000000
  0.000000  0.000000  0.200000      2.000000
  0.200000  0.000000  0.200000     12.000000
  0.400000  0.000000  0.200000     12.000000
  0.200000  0.200000  0.200000     12.000000
  0.400000  0.200000  0.200000     12.000000
  0.000000  0.000000  0.400000      2.000000
  0.200000  0.000000  0.400000     12.000000
  0.400000  0.000000  0.400000     12.000000
  0.200000  0.200000  0.400000     12.000000
  0.400000  0.200000  0.400000     12.000000

 Following cartesian coordinates:
            Coordinates               Weight
  0.000000  0.000000  0.000000      1.000000
  0.062690  0.036194  0.000000      6.000000
  0.125379  0.072388  0.000000      6.000000
  0.062690  0.108582  0.000000      6.000000
  0.125379  0.144776  0.000000      6.000000
  0.000000  0.000000  0.013442      2.000000
  0.062690  0.036194  0.013442     12.000000
  0.125379  0.072388  0.013442     12.000000
  0.062690  0.108582  0.013442     12.000000
  0.125379  0.144776  0.013442     12.000000
  0.000000  0.000000  0.026884      2.000000
  0.062690  0.036194  0.026884     12.000000
  0.125379  0.072388  0.026884     12.000000
  0.062690  0.108582  0.026884     12.000000
  0.125379  0.144776  0.026884     12.000000

 SYSTEM =  2H-MoS2
 POSCAR =  MoS2 (bulk, 2 f.u.)

 Startparameter for this run:
   NWRITE =      1    write-flag & timer
   PREC   = accura    normal or accurate (medium, high low for compatibility)
   ISTART =      0    job   : 0-new  1-cont  2-samecut
   ICHARG =      2    charge: 1-file 2-atom 10-const
   ISPIN  =      1    spin polarized calculation?
   LNONCOLLINEAR =      F non collinear calculations
   LSORBIT =      F    spin-orbit coupling
   INIWAV =      1    electr: 0-lowe 1-rand  2-diag
   LASPH  =      F    aspherical Exc in radial PAW
   METAGGA=      F    non-selfconsistent MetaGGA calc.

 Electronic Relaxation 1
   ENCUT  =  344.9 eV  25.35 Ry    5.03 a.u.   4.83  4.83 22.53*2*pi/ulx,y,z
   ENINI  =  344.9     initial cutoff
   ENAUG  =  964.7 eV  augmentation charge cutoff
   NELM   =     60;   NELMIN=  2; NELMDL= -5     # of ELM steps
   EDIFF  = 0.1E-04   stopping-criterion for ELM
   LREAL  =      F    real-space projection
   NLSPLINE    = F    spline interpolate recip. space projectors
   LCOMPAT=      F    compatible to vasp.4.4
   GGA_COMPAT  = T    GGA compatible to vasp.4.4-vasp.4.6
   LMAXPAW     = -100 max onsite density
   LMAXMIX     =    2 max onsite mixed and CHGCAR
   VOSKOWN=      0    Vosko Wilk Nusair interpolation
   ROPT   =    0.00000   0.00000
 Ionic relaxation
   EDIFFG = 0.1E-03   stopping-criterion for IOM
   NSW    =   1000    number of steps for IOM
   NBLOCK =      1;   KBLOCK =   1000    inner block; outer block
   IBRION =      2    ionic relax: 0-MD 1-quasi-New 2-CG
   NFREE  =      1    steps in history (QN), initial steepest desc. (CG)
   ISIF   =      3    stress and relaxation
   IWAVPR =     11    prediction:  0-non 1-charg 2-wave 3-comb
   ISYM   =      2    0-nonsym 1-usesym 2-fastsym
   LCORR  =      T    Harris-Foulkes like correction to forces

   POTIM  = 0.5000    time-step for ionic-motion
   TEIN   =    0.0    initial temperature
   TEBEG  =    0.0;   TEEND  =   0.0 temperature during run
   SMASS  =  -3.00    Nose mass-parameter (am)
   estimated Nose-frequenzy (Omega)   =  0.10E-29 period in steps =****** mass=  -0.233E-27a.u.
   SCALEE = 1.0000    scale energy and forces
   NPACO  =    256;   APACO  = 16.0  distance and # of slots for P.C.
   PSTRESS=    0.0 pullay stress

  Mass of Ions in am
   POMASS =  95.94 32.07
  Ionic Valenz
   ZVAL   =  14.00  6.00
  Atomic Wigner-Seitz radii
  virtual crystal weights
   VCA    =   1.00  1.00
   NELECT =      52.0000    total number of electrons
   NUPDOWN=      -1.0000    fix difference up-down

 DOS related values:
   EMIN   =  10.00;   EMAX   =-10.00  energy-range for DOS
   EFERMI =   0.00
   ISMEAR =     0;   SIGMA  =   0.05  broadening in eV -4-tet -1-fermi 0-gaus

 Electronic relaxation 2 (details)
   IALGO  =     68    algorithm
   LDIAG  =      T    sub-space diagonalisation (order eigenvalues)
   LSUBROT=      F    optimize rotation matrix (better conditioning)
   TURBO    =      0    0=normal 1=particle mesh
   IRESTART =      0    0=no restart 2=restart with 2 vectors
   NREBOOT  =      0    no. of reboots
   NMIN     =      0    reboot dimension
   EREF     =   0.00    reference energy to select bands
   IMIX   =      4    mixing-type and parameters
     AMIX     =   0.40;   BMIX     =  1.00
     AMIX_MAG =   1.60;   BMIX_MAG =  1.00
     AMIN     =   0.10
     WC   =   100.;   INIMIX=   1;  MIXPRE=   1;  MAXMIX= -45

 Intra band minimization:
   WEIMIN = 0.0010     energy-eigenvalue tresh-hold
   EBREAK =  0.78E-07  absolut break condition
   DEPER  =   0.30     relativ break condition

   TIME   =   0.40     timestep for ELM

  volume/ion in A,a.u.               =      21.86       147.51
  Fermi-wavevector in a.u.,A,eV,Ry     =   1.202685  2.272746 19.680175  1.446452
  Thomas-Fermi vector in A             =   2.338460

 Write flags
   LWAVE        =      T    write WAVECAR
   LDOWNSAMPLE  =      F    k-point downsampling of WAVECAR
   LCHARG       =      F    write CHGCAR
   LVTOT        =      F    write LOCPOT, total local potential
   LVHAR        =      F    write LOCPOT, Hartree potential only
   LELF         =      F    write electronic localiz. function (ELF)
   LORBIT       =      0    0 simple, 1 ext, 2 COOP (PROOUT), +10 PAW based schemes

 Dipole corrections
[...]
  free energy    TOTEN  =       361.66347063 eV

  energy without entropy =      361.67063704  energy(sigma->0) =      361.66705384

[...]

 eigenvalue-minimisations  :  1440
 total energy-change (2. order) :-0.3824886E+03  (-0.3729617E+03)
 number of electron      52.0000000 magnetization
 augmentation part       52.0000000 magnetization

[...]

 Broyden mixing:
  rms(total) = 0.14954E+01    rms(broyden)= 0.14945E+01
  rms(prec ) = 0.18879E+01
  weight for this iteration     100.00

[...]

 eigenvalues of (default mixing * dielectric matrix)
  average eigenvalue GAMMA=   0.8257
  0.8257

[...]

 Broyden mixing:
  rms(total) = 0.25255E-03    rms(broyden)= 0.25239E-03
  rms(prec ) = 0.31815E-03
  weight for this iteration     100.00

[...]

 Free energy of the ion-electron system (eV)
  alpha Z        PSCENC =       145.80791439
  Ewald energy   TEWEN  =     -2213.96869372
  -Hartree energ DENC   =     -2400.28352750
  -exchange      EXHF   =         0.00000000
  -V(xc)+E(xc)   XCENC  =       165.28910537
  PAW double counting   =      3847.78186611    -3809.30356096
  entropy T*S    EENTRO =        -0.00000000
  eigenvalues    EBANDS =      -610.61010484
  atomic energy  EATOM  =      4830.08457801
  Solvation  Ediel_sol  =         0.00000000
  free energy    TOTEN  =       -45.20242314 eV

  energy without entropy =      -45.20242314  energy(sigma->0) =      -45.20242314

 average (electrostatic) potential at core
  the test charge radii are     0.8928  1.0339
  (the norm of the test charge is              1.0000)
       1-102.3578       2-102.3577       3 -90.0893       4 -90.0893       5 -90.0893
       6 -90.0893

 E-fermi :   5.0390     XC(G=0):  -9.4193     alpha+bet :-10.5804

 k-point     1 :       0.0000    0.0000    0.0000
  band No.  band energies     occupation
      1     -56.4304      2.00000
      2     -56.4300      2.00000
      3     -30.5575      2.00000
      4     -30.5560      2.00000
      5     -30.3577      2.00000
      6     -30.3577      2.00000
      7     -30.3574      2.00000
      8     -30.3574      2.00000
      9      -9.5860      2.00000
     10      -9.5673      2.00000
     11      -8.3040      2.00000
     12      -8.2701      2.00000
     13      -1.1761      2.00000
     14      -1.0141      2.00000
     15       1.8744      2.00000
     16       1.8744      2.00000
     17       1.8749      2.00000
     18       1.8749      2.00000
     19       2.4442      2.00000
     20       2.9686      2.00000
     21       2.9686      2.00000
     22       2.9709      2.00000
     23       2.9710      2.00000
     24       3.0070      2.00000
     25       4.2972      2.00000
     26       4.6794      2.00000
     27       7.2055      0.00000
     28       7.2065      0.00000
     29       7.2673      0.00000
     30       7.3145      0.00000
     31       7.4468      0.00000
     32       7.4497      0.00000

[...]

 soft charge-density along one line, spin component           1
         0         1         2         3         4         5         6         7         8         9
 total charge-density along one line

------------------------ aborting loop because EDIFF is reached ----------------------------------------

  FORCE on cell =-STRESS in cart. coord.  units (eV):
  Direction    XX          YY          ZZ          XY          YZ          ZX
  Alpha Z   145.80791   145.80791   145.80791
  Ewald     592.34517   592.34750 -3398.66488     0.00178     0.00000    -0.00000
  Hartree  1920.83606  1920.83594 -1441.38430    -0.00006     0.00000    -0.00000
  E(xc)    -221.51986  -221.51987  -222.00863    -0.00000    -0.00000    -0.00000
  Local   -3670.17007 -3670.17114  3669.73176    -0.00111     0.00000    -0.00000
  n-local   255.69470   255.27848   261.74311    -0.15603     0.00289     0.00388
  augment   -84.02847   -84.02841   -86.16452     0.00004     0.00000     0.00000
  Kinetic  1052.70703  1067.29725  1069.71500   -25.20690     0.00641     0.01303
  Fock        0.00000     0.00000     0.00000     0.00000     0.00000     0.00000
  Total      -1.23993    -1.23993    -1.22456     0.00000     0.00000     0.00000
  in kB     -15.14733   -15.14732   -14.95958     0.00000     0.00000     0.00000

 VOLUME and BASIS-vectors are now :
  energy-cutoff  :      344.91
  volume of cell :      131.15
      direct lattice vectors                 reciprocal lattice vectors
     3.190316000  0.000000000  0.000000000     0.313448574  0.180969664  0.000000000
    -1.595158000  2.762894000  0.000000000     0.000000000  0.361939329  0.000000000
     0.000000000  0.000000000 14.879004000     0.000000000  0.000000000  0.067208800

[...]

 FORCES acting on ions
    electron-ion (+dipol)            ewald-force                    non-local-force                 convergence-correction
   -.692E-02 0.395E-02 -.354E-04   -.433E-03 0.321E-03 -.114E-12   0.833E-16 -.694E-17 0.474E-19   -.564E-06 0.328E-06 -.385E-08
   0.306E-02 -.173E-02 -.354E-04   0.433E-03 -.321E-03 0.114E-12   -.763E-16 0.000E+00 0.407E-19   0.322E-06 -.189E-06 -.386E-08
   0.269E-03 -.130E-03 0.487E+03   0.217E-03 -.161E-03 -.495E+03   0.104E-16 0.000E+00 0.783E+01   0.181E-07 -.114E-07 0.135E-02
   -.581E-03 0.310E-03 0.487E+03   -.217E-03 0.161E-03 -.495E+03   -.173E-16 0.694E-17 0.783E+01   -.168E-07 0.106E-07 0.135E-02
   0.871E-03 -.478E-03 -.487E+03   0.217E-03 -.161E-03 0.495E+03   0.104E-16 -.694E-17 -.783E+01   0.485E-07 -.290E-07 -.135E-02
   -.118E-02 0.658E-03 -.487E+03   -.217E-03 0.161E-03 0.495E+03   0.191E-16 0.000E+00 -.783E+01   -.472E-07 0.282E-07 -.135E-02
   -.448E-02 0.258E-02 -.629E-04   -.373E-13 -.144E-13 0.568E-13   0.295E-16 -.694E-17 -.888E-15   -.239E-06 0.138E-06 -.778E-08

 POSITION                                       TOTAL-FORCE (eV/Angst)
      1.59516      0.92096      3.71975         0.000000     -0.000000      0.000000
     -0.00000      1.84193     11.15925        -0.000000      0.000000      0.000000
     -0.00000      1.84193      2.15487         0.000000     -0.000000      0.044771
      1.59516      0.92096      9.59437        -0.000000      0.000000      0.044771
     -0.00000      1.84193      5.28464         0.000000     -0.000000     -0.044771
      1.59516      0.92096     12.72414         0.000000     -0.000000     -0.044771
    total drift:                               -0.004476      0.002584     -0.000063

  FREE ENERGIE OF THE ION-ELECTRON SYSTEM (eV)
  free  energy   TOTEN  =       -45.20242314 eV

  energy  without entropy=      -45.20242314  energy(sigma->0) =      -45.20242314

[...]

  free energy =  -0.455985560853E+02  energy without entropy=  -0.455985560853E+02

[...]

 d Force =-0.1951173E-02[-0.429E-02, 0.383E-03]  d Energy =-0.1663373E-01 0.147E-01
 d Force =-0.4278547E+01[-0.432E+01,-0.423E+01]  d Ewald  = 0.1754465E+02-0.218E+02

 Steepest descent step on ions:
 trial-energy change:    0.016634  1 .order    0.016818   -0.037167    0.070803
  (g-gl).g = 0.372E-01      g.g   = 0.372E-01  gl.gl    = 0.000E+00
 g(Force)  = 0.387E-03   g(Stress)= 0.368E-01 ortho     = 0.000E+00
 gamma     =   0.00000
 trial     =   1.00000
 opt step  =   0.34655  (harmonic =   0.34423) maximal distance =0.00074852
 next E    =   -45.208871   (d E  =  -0.00645)

[...]

 d Force = 0.1826880E-02[ 0.807E-03, 0.285E-02]  d Energy = 0.2313567E-01-0.213E-01
 d Force = 0.2852374E+01[ 0.283E+01, 0.287E+01]  d Ewald  =-0.1147458E+02 0.143E+02

[...]

 d Force = 0.2601652E-02[ 0.190E-02, 0.330E-02]  d Energy = 0.2614563E-02-0.129E-04
 d Force = 0.1158603E+02[ 0.116E+02, 0.116E+02]  d Ewald  = 0.1206229E+02-0.476E+00

 Conjugate gradient step on ions:
 trial-energy change:   -0.002615  1 .order   -0.002749   -0.003696   -0.001801
  (g-gl).g = 0.283E-02      g.g   = 0.415E-02  gl.gl    = 0.372E-01
 g(Force)  = 0.390E-02   g(Stress)= 0.256E-03 ortho     = 0.132E-02
 gamma     =   0.07623
 trial     =   0.86931
 opt step  =   1.69584  (harmonic =   1.69584) maximal distance =0.01134418
 next E    =   -45.212530   (d E  =  -0.00361)

[...]

 Conjugate gradient step on ions:
 trial-energy change:   -0.002148  1 .order   -0.002259   -0.002272   -0.002246
  (g-gl).g = 0.425E-02      g.g   = 0.442E-02  gl.gl    = 0.415E-02
 g(Force)  = 0.139E-03   g(Stress)= 0.428E-02 ortho     = 0.169E-03
 gamma     =   1.02362
 trial     =   0.49498
 opt step  =   1.97993  (harmonic =  43.57408) maximal distance =0.01611868
 next E    =   -45.312388   (d E  =  -0.09999)

[...]

 d Force = 0.3163765E-02[ 0.226E-02, 0.406E-02]  d Energy = 0.1449787E-02 0.171E-02
 d Force = 0.1310914E+02[ 0.131E+02, 0.132E+02]  d Ewald  = 0.2101309E+02-0.790E+01

 Conjugate gradient step on ions:
 trial-energy change:   -0.001450  1 .order   -0.001586   -0.001920   -0.001251
  (g-gl).g = 0.148E-01      g.g   = 0.103E-01  gl.gl    = 0.442E-02
 g(Force)  = 0.375E-02   g(Stress)= 0.654E-02 ortho     =-0.409E-03
 gamma     =   3.34172
 trial     =   0.21524
 opt step  =   0.61706  (harmonic =   0.61706) maximal distance =0.02093803
 next E    =   -45.232227   (d E  =  -0.00275)

[...]

 d Force = 0.1317519E-02[-0.158E-02, 0.422E-02]  d Energy = 0.6074513E-03 0.710E-03
 d Force = 0.2419253E+02[ 0.240E+02, 0.243E+02]  d Ewald  = 0.3887747E+02-0.147E+02

[...]

 d Force =-0.4406983E-03[-0.381E-03,-0.501E-03]  d Energy = 0.8411783E-03-0.128E-02
 d Force = 0.7600126E+01[ 0.760E+01, 0.760E+01]  d Ewald  = 0.1353176E+02-0.593E+01

 Conjugate gradient step on ions:
 trial-energy change:   -0.000841  1 .order   -0.000881   -0.001281   -0.000482
  (g-gl).g = 0.484E-02      g.g   = 0.499E-02  gl.gl    = 0.103E-01
 g(Force)  = 0.164E-03   g(Stress)= 0.482E-02 ortho     =-0.139E-02
 gamma     =   0.47012
 trial     =   0.29560
 opt step  =   0.47386  (harmonic =   0.47386) maximal distance =0.00689219
 next E    =   -45.232557   (d E  =  -0.00103)

[...]

 d Force =-0.2055161E-03[-0.181E-03,-0.230E-03]  d Energy = 0.1308096E-03-0.336E-03
 d Force = 0.4583321E+01[ 0.458E+01, 0.458E+01]  d Ewald  = 0.8169927E+01-0.359E+01

[...]

 eigenvalues of (default mixing * dielectric matrix)
  average eigenvalue GAMMA=   1.0851
  1.0851

[...]

 eigenvalue-minimisations  :   645
 total energy-change (2. order) : 0.1918033E-06  (-0.3165483E-05)
 number of electron      52.0000000 magnetization
 augmentation part       -2.9816658 magnetization

[...]

 d Force = 0.3315476E-04[ 0.377E-05, 0.625E-04]  d Energy = 0.4602961E-04-0.129E-04
 d Force =-0.1581981E+01[-0.158E+01,-0.158E+01]  d Ewald  =-0.1969160E+01 0.387E+00

 Conjugate gradient step on ions:
 trial-energy change:   -0.000046  1 .order   -0.000034   -0.000055   -0.000013
  (g-gl).g =-0.636E-03      g.g   = 0.177E-03  gl.gl    = 0.499E-02
 g(Force)  = 0.591E-04   g(Stress)= 0.118E-03 ortho     = 0.929E-04
 gamma     =  -0.12744
 trial     =   0.33125
 opt step  =   0.43514  (harmonic =   0.43514) maximal distance =0.00117382
 next E    =   -45.232539   (d E  =  -0.00004)

[...]

--------------------------------------- Iteration     15(   2)  ---------------------------------------

 eigenvalue-minimisations  :   592
 total energy-change (2. order) :-0.3375217E-06  (-0.2350009E-05)
 number of electron      52.0000000 magnetization
 augmentation part       -2.9813595 magnetization

  free energy =  -0.452325549520E+02  energy without entropy=  -0.452325549520E+02

 average (electrostatic) potential at core
  the test charge radii are     0.8928  1.0339
  (the norm of the test charge is              1.0000)
       1-101.3941       2-101.3941       3 -89.1615       4 -89.1615       5 -89.1615
       6 -89.1615

 E-fermi :   5.9862     XC(G=0): -10.0225     alpha+bet :-11.5328

[...]

 k-point    15 :       0.4000    0.2000    0.4000
  band No.  band energies     occupation
      1     -55.4383      2.00000
      2     -55.4382      2.00000
      3     -29.7328      2.00000
      4     -29.7326      2.00000
      5     -29.5692      2.00000
      6     -29.5690      2.00000
      7     -29.5364      2.00000
      8     -29.5364      2.00000
      9      -6.6537      2.00000
     10      -6.6489      2.00000
     11      -6.5396      2.00000
     12      -6.5350      2.00000
     13       0.1798      2.00000
     14       0.1975      2.00000
     15       0.2380      2.00000
     16       0.2424      2.00000
     17       1.4652      2.00000
     18       1.5113      2.00000
     19       2.3003      2.00000
     20       2.3440      2.00000
     21       2.6820      2.00000
     22       2.7045      2.00000
     23       3.4442      2.00000
     24       3.4852      2.00000
     25       5.1412      2.00000
     26       5.1590      2.00000
     27       7.4341      0.00000
     28       7.4457      0.00000
     29       8.5417      0.00000
     30       8.5464      0.00000
     31       8.6871      0.00000
     32       8.7767      0.00000

 soft charge-density along one line, spin component           1
         0         1         2         3         4         5         6         7         8         9
 total charge-density along one line

------------------------ aborting loop because EDIFF is reached ----------------------------------------

  FORCE on cell =-STRESS in cart. coord.  units (eV):
  Direction    XX          YY          ZZ          XY          YZ          ZX
  Alpha Z   158.93314   158.93314   158.93314
  Ewald     117.36508   117.36740 -2931.29676     0.00177     0.00000    -0.00000
  Hartree  1503.00886  1503.00875 -1026.80096    -0.00006     0.00000    -0.00000
  E(xc)    -221.66941  -221.66942  -222.08283    -0.00000    -0.00000    -0.00000
  Local   -2790.52726 -2790.52832  2775.25942    -0.00110     0.00000    -0.00000
  n-local   256.66489   256.32058   262.76298    -0.26618     0.00847     0.00944
  augment   -83.96568   -83.96563   -85.86953     0.00004     0.00000     0.00000
  Kinetic  1053.05590  1067.61299  1069.15680   -25.17977     0.01831     0.03335
  Fock        0.00000     0.00000     0.00000     0.00000     0.00000     0.00000
  Total      -0.02750    -0.02750     0.06225    -0.00000    -0.00000    -0.00000
  in kB      -0.36619    -0.36619     0.82889    -0.00000    -0.00000    -0.00000

 VOLUME and BASIS-vectors are now :
  energy-cutoff  :      344.91
  volume of cell :      120.32
      direct lattice vectors                 reciprocal lattice vectors
     3.179267819 -0.000000000 -0.000000000     0.314537830  0.181598546 -0.000000000
    -1.589633910  2.753326003 -0.000000000     0.000000000  0.363197093 -0.000000000
     0.000000000  0.000000000 13.745282730     0.000000000  0.000000000  0.072752232

  length of vectors
     3.179267819  3.179267218 13.745282730     0.363197024  0.363197093  0.072752232

 FORCES acting on ions
    electron-ion (+dipol)            ewald-force                    non-local-force                 convergence-correction
   -.685E-02 0.391E-02 -.356E-04   -.431E-03 0.319E-03 0.142E-12   -.260E-16 0.278E-16 0.542E-19   0.827E-06 -.485E-06 -.242E-09
   0.307E-02 -.173E-02 -.356E-04   0.431E-03 -.319E-03 0.000E+00   0.278E-16 -.278E-16 -.542E-19   -.908E-06 0.531E-06 -.245E-09
   0.290E-03 -.142E-03 0.435E+03   0.216E-03 -.160E-03 -.443E+03   0.260E-16 0.121E-16 0.774E+01   0.736E-08 -.387E-08 -.293E-02
   -.573E-03 0.306E-03 0.435E+03   -.216E-03 0.160E-03 -.443E+03   -.191E-16 0.694E-17 0.774E+01   0.803E-08 -.502E-08 -.293E-02
   0.872E-03 -.478E-03 -.435E+03   0.216E-03 -.160E-03 0.443E+03   0.382E-16 -.347E-17 -.774E+01   0.427E-08 -.208E-08 0.293E-02
   -.115E-02 0.642E-03 -.435E+03   -.216E-03 0.160E-03 0.443E+03   -.122E-16 -.121E-16 -.774E+01   0.111E-07 -.680E-08 0.293E-02
   -.435E-02 0.251E-02 -.631E-04   0.150E-13 -.461E-14 0.000E+00   0.347E-16 0.347E-17 -.888E-15   -.496E-07 0.287E-07 -.714E-09

 POSITION                                       TOTAL-FORCE (eV/Angst)
      1.58964      0.91777      3.43632        -0.000000     -0.000000      0.000000
     -0.00000      1.83555     10.30896         0.000000      0.000000      0.000000
     -0.00000      1.83555      1.87052        -0.000000     -0.000000      0.000162
      1.58964      0.91777      8.74316        -0.000000      0.000000      0.000162
     -0.00000      1.83555      5.00212        -0.000000     -0.000000     -0.000162
      1.58964      0.91777     11.87477        -0.000000     -0.000000     -0.000162
    total drift:                               -0.004352      0.002512     -0.000063

  FREE ENERGIE OF THE ION-ELECTRON SYSTEM (eV)
  free  energy   TOTEN  =       -45.23255495 eV

  energy  without entropy=      -45.23255495  energy(sigma->0) =      -45.23255495

 d Force = 0.6816382E-06[ 0.181E-06, 0.118E-05]  d Energy = 0.5890138E-05-0.521E-05
 d Force =-0.4963307E+00[-0.496E+00,-0.496E+00]  d Ewald  =-0.6178403E+00 0.122E+00

 reached required accuracy - stopping structural energy minimisation
 writing wavefunctions